(set-option :produce-models true)
(set-logic QF_UF)
(declare-fun p29() Bool)
(declare-fun p14() Bool)
(declare-fun p85() Bool)
(declare-fun p31() Bool)
(declare-fun p4() Bool)
(declare-fun p89() Bool)
(declare-fun p99() Bool)
(declare-fun p25() Bool)
(declare-fun p44() Bool)
(declare-fun p82() Bool)
(declare-fun p0() Bool)
(declare-fun p47() Bool)
(declare-fun p95() Bool)
(declare-fun p48() Bool)
(declare-fun p21() Bool)
(declare-fun p28() Bool)
(declare-fun p2() Bool)
(declare-fun p43() Bool)
(declare-fun p50() Bool)
(declare-fun p61() Bool)
(declare-fun p55() Bool)
(declare-fun p17() Bool)
(declare-fun p97() Bool)
(declare-fun p56() Bool)
(declare-fun p37() Bool)
(declare-fun p32() Bool)
(declare-fun p58() Bool)
(declare-fun p91() Bool)
(declare-fun p15() Bool)
(declare-fun p19() Bool)
(declare-fun p66() Bool)
(declare-fun p20() Bool)
(declare-fun p80() Bool)
(declare-fun p49() Bool)
(declare-fun p93() Bool)
(declare-fun p12() Bool)
(declare-fun p76() Bool)
(declare-fun p54() Bool)
(declare-fun p45() Bool)
(declare-fun p86() Bool)
(declare-fun p1() Bool)
(declare-fun p3() Bool)
(declare-fun p26() Bool)
(declare-fun p23() Bool)
(declare-fun p52() Bool)
(declare-fun p46() Bool)
(declare-fun p94() Bool)
(declare-fun p57() Bool)
(declare-fun p13() Bool)
(declare-fun p10() Bool)
(declare-fun p71() Bool)
(declare-fun p6() Bool)
(declare-fun p27() Bool)
(declare-fun p51() Bool)
(declare-fun p63() Bool)
(declare-fun p84() Bool)
(declare-fun p81() Bool)
(declare-fun p18() Bool)
(declare-fun p22() Bool)
(declare-fun p24() Bool)
(declare-fun p90() Bool)
(declare-fun p33() Bool)
(declare-fun p8() Bool)
(declare-fun p39() Bool)
(declare-fun p73() Bool)
(declare-fun p40() Bool)
(declare-fun p75() Bool)
(declare-fun p16() Bool)
(declare-fun p78() Bool)
(declare-fun p11() Bool)
(declare-fun p68() Bool)
(declare-fun p38() Bool)
(declare-fun p35() Bool)
(declare-fun p69() Bool)
(declare-fun p65() Bool)
(declare-fun p64() Bool)
(declare-fun p9() Bool)
(declare-fun p70() Bool)
(declare-fun p60() Bool)
(declare-fun p42() Bool)
(declare-fun p96() Bool)
(declare-fun p36() Bool)
(declare-fun p41() Bool)
(declare-fun p72() Bool)
(declare-fun p7() Bool)
(declare-fun p67() Bool)
(declare-fun p79() Bool)
(declare-fun p98() Bool)
(declare-fun p83() Bool)
(declare-fun p87() Bool)
(declare-fun p34() Bool)
(declare-fun p59() Bool)
(declare-fun p88() Bool)
(declare-fun p30() Bool)
(declare-fun p92() Bool)
(declare-fun p77() Bool)
(declare-fun p5() Bool)
(declare-fun p74() Bool)
(declare-fun p62() Bool)
(declare-fun p53() Bool)
(assert
(and (or (not p29) p14 p85) (or p31 (not p4) (not p89)) (or (not p29) (not p99) p25) (or p44 (not p82) p0) (or p47 p95 p48) (or (not p21) (not p28) (not p99)) (or p2 (not p43) (not p50)) (or (not p61) p55 p17) (or (not p97) p56 p37) (or (not p32) (not p58) p91) (or p15 (not p58) p19) (or (not p66) p4 (not p20)) (or (not p80) (not p43) (not p21)) (or p49 p93 p2) (or p12 p0 p29) (or p76 p54 (not p45)) (or p86 p14 p1) (or (not p3) p26 p23) (or p52 (not p46) p86) (or (not p14) (not p94) (not p12)) (or p57 (not p4) p13) (or p10 (not p32) (not p1)) (or p56 p71 (not p25)) (or p85 p13 p85) (or (not p6) p28 (not p27)) (or (not p85) p85 p51) (or p63 p31 p84) (or (not p44) p81 p54) (or p18 p89 p10) (or p95 p22 (not p24)) (or p94 p6 p90) (or p82 (not p85) (not p76)) (or p55 (not p33) (not p99)) (or p28 (not p51) (not p8)) (or (not p81) (not p46) (not p39)) (or (not p48) (not p46) (not p46)) (or p89 (not p73) (not p51)) (or p28 (not p40) p75) (or (not p16) (not p78) (not p16)) (or p19 (not p44) p11) (or (not p44) (not p50) (not p68)) (or (not p38) p16 p35) (or (not p75) (not p37) (not p71)) (or p35 p21 (not p51)) (or p69 (not p65) (not p37)) (or p71 p16 p64) (or (not p50) p10 p76) (or (not p23) p76 p50) (or p9 p24 p8) (or (not p44) p70 (not p68)) (or (not p1) (not p14) p40) (or p89 (not p45) (not p60)) (or p50 p28 (not p6)) (or p42 p16 (not p76)) (or (not p16) (not p6) p27) (or (not p49) p12 p81) (or (not p17) p52 (not p22)) (or (not p37) p0 (not p44)) (or p96 p36 p44) (or p14 p57 p61) (or (not p45) (not p85) p41) (or (not p45) (not p19) (not p3)) (or (not p24) (not p72) p7) (or p9 p16 p19) (or p86 (not p41) (not p51)) (or (not p46) p67 (not p91)) (or (not p27) p79 (not p39)) (or (not p50) (not p98) p64) (or (not p83) p26 (not p46)) (or (not p49) p79 p4) (or p31 (not p39) p28) (or p44 (not p89) (not p87)) (or (not p34) p3 (not p7)) (or (not p12) p45 (not p59)) (or p48 (not p95) p33) (or p89 p7 p48) (or p2 p86 (not p21)) (or (not p39) p26 p42) (or (not p52) (not p38) (not p88)) (or p44 p58 p98) (or (not p46) (not p49) (not p83)) (or p21 (not p81) p79) (or (not p46) (not p36) (not p65)) (or (not p48) p57 (not p30)) (or (not p84) p86 p42) (or (not p87) p25 (not p75)) (or (not p31) (not p56) p84) (or p22 p6 (not p75)) (or p66 (not p94) (not p92)) (or (not p56) (not p79) (not p85)) (or (not p87) (not p1) (not p47)) (or p10 p77 (not p28)) (or (not p14) p86 (not p61)) (or p42 (not p56) (not p60)) (or p97 (not p57) (not p88)) (or (not p94) p48 p88) (or (not p93) p89 (not p0)) (or (not p56) (not p45) (not p61)) (or (not p87) p28 (not p86)) (or (not p40) p65 (not p57)) (or p65 p84 (not p86)) (or p90 p81 (not p70)) (or p28 (not p26) p94) (or (not p35) p6 (not p35)) (or p4 (not p36) p91) (or p42 p39 (not p89)) (or p14 p35 p49) (or p86 (not p96) (not p32)) (or p26 (not p37) p89) (or p17 p73 (not p81)) (or (not p67) p68 p92) (or p69 (not p16) p38) (or p87 p75 (not p61)) (or p5 p44 (not p72)) (or (not p43) p10 p79) (or (not p13) p74 p9) (or (not p30) p82 (not p54)) (or (not p13) p27 p8) (or p5 (not p24) (not p81)) (or (not p7) p38 p12) (or (not p69) (not p41) (not p81)) (or (not p24) p35 p7) (or p78 p70 (not p26)) (or p92 (not p70) (not p83)) (or p13 p67 (not p20)) (or (not p31) p81 p95) (or p56 p94 p79) (or (not p55) (not p14) p7) (or (not p54) (not p82) p2) (or p96 p72 (not p59)) (or (not p0) p39 p50) (or p35 p20 p85) (or p9 (not p85) (not p52)) (or p84 (not p69) p30) (or p23 (not p1) (not p73)) (or p17 (not p92) p44) (or p31 (not p4) p75) (or p20 (not p61) (not p34)) (or (not p24) (not p60) (not p41)) (or p63 (not p27) p6) (or p46 (not p79) (not p37)) (or p20 (not p78) (not p72)) (or p10 (not p91) p9) (or (not p76) (not p45) (not p74)) (or p7 p13 p55) (or (not p64) (not p3) (not p50)) (or p12 (not p62) (not p46)) (or p69 (not p44) p66) (or p22 p11 (not p24)) (or (not p76) (not p97) p29) (or (not p58) (not p36) p82) (or p52 p2 (not p32)) (or p90 p89 (not p52)) (or (not p51) (not p22) p86) (or p27 (not p56) (not p75)) (or (not p47) (not p70) p87) (or (not p88) (not p61) p40) (or p88 (not p82) (not p24)) (or p46 p7 (not p37)) (or (not p15) p74 p95) (or p76 (not p31) (not p66)) (or p86 p25 p49) (or (not p59) (not p38) p45) (or p23 (not p29) p21) (or p24 (not p21) (not p78)) (or p82 p61 (not p87)) (or (not p94) p21 p43) (or (not p49) p39 (not p54)) (or p25 (not p87) (not p24)) (or p90 (not p16) (not p9)) (or p67 (not p96) p87) (or (not p33) (not p84) p74) (or (not p9) p52 (not p41)) (or (not p21) (not p17) (not p71)) (or p77 (not p52) (not p47)) (or p69 p90 (not p78)) (or (not p90) (not p36) p80) (or (not p10) (not p20) p6) (or p57 (not p43) (not p76)) (or (not p48) (not p96) p36) (or (not p60) (not p6) (not p50)) (or p11 p5 p81) (or (not p10) (not p52) (not p55)) (or p6 (not p19) p23) (or p52 p62 (not p82)) (or (not p88) p68 p85) (or p3 (not p37) p77) (or (not p77) (not p91) (not p35)) (or p70 (not p0) (not p79)) (or (not p24) p58 p28) (or p74 p75 p10) (or (not p35) (not p39) (not p46)) (or p63 p24 (not p8)) (or (not p60) p95 p7) (or (not p64) p0 (not p90)) (or p13 (not p34) p72) (or p92 p78 p18) (or p22 p95 (not p37)) (or p55 (not p97) (not p10)) (or (not p27) p27 (not p29)) (or (not p39) p1 (not p5)) (or p9 p47 p79) (or p31 p58 p91) (or (not p62) (not p31) (not p93)) (or (not p31) (not p8) (not p65)) (or p35 (not p38) p62) (or p60 p78 (not p90)) (or p47 (not p79) p86) (or p31 p78 (not p49)) (or p68 p73 (not p24)) (or p57 (not p48) (not p3)) (or p14 (not p68) (not p15)) (or (not p33) (not p23) p78) (or (not p63) p49 (not p64)) (or (not p54) (not p57) p19) (or (not p12) p32 (not p85)) (or p5 (not p5) (not p50)) (or p43 (not p0) p57) (or (not p90) (not p50) p37) (or p17 p76 (not p75)) (or (not p81) (not p36) p84) (or (not p88) p11 p89) (or (not p68) (not p34) p66) (or p90 (not p86) (not p78)) (or p99 p93 (not p75)) (or p55 p82 p76) (or p99 p32 (not p2)) (or (not p34) p61 p58) (or (not p17) (not p94) (not p78)) (or (not p28) (not p68) (not p52)) (or p13 (not p46) (not p55)) (or (not p92) p43 (not p44)) (or (not p54) (not p51) (not p31)) (or p84 (not p39) p72) (or (not p91) (not p82) (not p79)) (or p39 (not p37) p34) (or p82 p67 p50) (or p44 (not p41) (not p73)) (or p28 (not p34) (not p6)) (or p50 (not p95) (not p94)) (or (not p4) (not p30) (not p41)) (or (not p52) (not p74) p7) (or p6 (not p27) p66) (or p83 p14 p32) (or p24 p14 p42) (or (not p39) p94 p58) (or (not p37) p43 p83) (or (not p86) p15 (not p9)) (or (not p48) p80 (not p16)) (or (not p88) (not p50) (not p2)) (or p27 (not p60) p28) (or (not p38) p5 p56) (or (not p73) p61 p54) (or (not p28) (not p23) p73) (or (not p28) (not p21) p89) (or p81 p95 p4) (or p23 p7 (not p60)) (or p52 p59 (not p12)) (or (not p20) (not p20) p40) (or p69 (not p28) p12) (or p2 (not p18) p76) (or (not p6) (not p21) (not p96)) (or (not p84) p83 (not p89)) (or (not p56) p40 (not p5)) (or (not p28) (not p52) p49) (or p94 p95 p60) (or p61 p11 (not p69)) (or p36 p24 p50) (or (not p19) (not p92) (not p62)) (or p21 p42 (not p56)) (or (not p60) (not p63) p14) (or p19 (not p55) p18) (or p28 (not p0) p29) (or p92 (not p34) p0) (or p18 (not p95) (not p94)) (or p55 p53 p90) (or p18 (not p2) (not p36)) (or (not p5) (not p1) p91) (or p44 p45 p55) (or p57 (not p40) p9) (or (not p73) (not p58) (not p82)) (or p91 (not p27) (not p75)) (or (not p24) (not p93) (not p23)) (or p81 p74 (not p57)) (or p51 (not p2) p79) (or (not p87) p44 p99) (or p35 (not p16) p58) (or p27 (not p49) (not p1)) (or (not p69) p56 (not p74)) (or p90 (not p13) p84) (or p66 p95 p96) (or p89 p54 p70) (or (not p48) p30 p91) (or (not p26) (not p92) p29) (or (not p73) (not p29) (not p37)) (or p5 p66 p15) (or p75 (not p72) (not p20)) (or (not p45) (not p75) (not p58)) (or p39 (not p3) (not p84)) (or (not p57) (not p30) (not p92)) (or p28 p49 p86) (or (not p73) (not p21) p52) (or (not p52) (not p54) (not p23)) (or (not p73) (not p30) p18) (or (not p15) (not p32) (not p81)) (or (not p99) p13 p95) (or (not p65) p8 p2) (or (not p49) (not p29) p85) (or (not p23) (not p1) p74) (or p42 p44 (not p55)) (or (not p30) (not p44) (not p51)) (or p13 p45 p43) (or p52 p28 (not p81)) (or (not p61) p26 p9) (or p95 p10 (not p94)) (or (not p83) p7 p79) (or p63 (not p20) p6) (or p66 p88 p43) (or (not p44) p62 p34) (or (not p44) p41 (not p63)) (or p28 p63 p82) (or (not p61) p52 (not p16)) (or (not p46) (not p57) p38) (or p82 (not p8) p94) (or p30 p6 p62) (or (not p64) (not p14) p88) (or (not p22) (not p31) p84) (or (not p37) (not p32) (not p33)) (or (not p53) (not p28) (not p16)) (or p76 (not p12) (not p43)) (or (not p94) p69 (not p12)) (or p17 p94 p84) (or (not p41) p88 (not p50)) (or (not p26) (not p22) p71) (or (not p65) (not p39) p65) (or p77 p30 (not p89)) (or (not p17) (not p55) p24) (or p81 (not p52) (not p15)) (or p17 p73 p14) (or p23 p43 (not p98)) (or p2 p73 (not p95)) (or p9 p36 (not p63)) (or (not p71) (not p83) p63) (or p33 p76 (not p85)) (or (not p90) (not p84) (not p15)) (or (not p9) p75 p28) (or (not p65) p24 (not p59)) (or (not p30) p20 p61) (or p92 p27 (not p99)) (or p16 (not p92) p46) (or (not p35) p96 (not p89)) (or (not p77) p94 p87) (or (not p48) (not p93) (not p31)) (or (not p57) (not p1) p84) (or p32 p65 p87) (or p71 (not p56) (not p38)) (or p93 p57 (not p99)) (or p58 p31 (not p3)) (or (not p26) (not p7) p79) (or p28 (not p3) (not p96)) (or (not p80) p79 p96) (or (not p32) (not p21) (not p38)) (or p86 (not p1) p2) (or (not p70) p88 (not p55)) (or p46 p37 (not p15)) (or p9 p12 p23) (or p1 p20 (not p20)) (or p62 (not p61) p17) (or p2 (not p24) (not p34)) (or p54 (not p86) p13) (or (not p76) (not p24) p62) (or p88 (not p17) (not p48)) (or (not p75) (not p87) p46) (or (not p12) p85 p14) (or (not p47) (not p66) p66) (or p25 (not p34) (not p45)) (or p77 (not p57) (not p68)) (or p62 p43 (not p91)) (or p73 p9 p84) (or p39 (not p2) p96) (or (not p94) (not p6) p65) (or p2 (not p56) (not p2)) (or (not p4) p61 p6) (or (not p21) p2 p29) (or (not p13) (not p24) (not p46)) (or (not p78) p96 p59) (or (not p76) p1 p10) (or (not p42) (not p12) p42) (or p28 (not p8) p41) (or (not p50) (not p19) p56) (or p10 p61 p41) (or p73 p78 (not p9)) (or p71 (not p21) (not p96)) (or p71 p7 p64) (or (not p78) p31 p41) (or (not p67) (not p40) (not p9)) (or p57 (not p50) (not p87)) (or (not p58) p77 p43) (or p23 p28 (not p64)) (or p44 (not p19) p84) (or p34 (not p95) p28) (or p50 (not p12) (not p69)) (or p79 p40 (not p34)) (or (not p59) p9 (not p92)) (or (not p7) (not p58) p69) (or (not p16) (not p3) (not p28)) (or (not p94) p35 p25) (or p17 p70 p56) (or (not p22) (not p39) p24) (or p30 p85 p63) (or p69 (not p19) (not p36)) (or p50 (not p88) p87) (or p58 (not p15) p42) (or p96 p60 (not p28)) (or p56 (not p5) p51) (or p41 (not p58) p21) (or (not p31) (not p79) (not p14)) (or (not p40) (not p24) (not p58)) (or p50 (not p24) (not p83)) (or p89 (not p70) p5))
)
(check-sat)
(get-model)
